Results/Experiment 1 Results/Existing Benchmark/RES_80/i-80-75-17.txt
solutions: 0 nodes: 1  modelTime: 116  solveTime: 23  totalTime: 151  modelSize: 7856  readTime: 12 matchingSize: 0
