Results/Experiment 2 Results/Existing Benchmark/i-80-75-17.lp
clingo version 5.4.0
Reading from tempSRTISolver.lp ...
Solving...
UNSATISFIABLE

Models       : 0
Calls        : 1
Time         : 10.638s (Solving: 0.85s 1st Model: 0.00s Unsat: 0.85s)
CPU Time     : 10.628s
